stage = A;
SUITOR = { S1, S2, S3 };
LiuBei = S1;
n = 2 + 2 + 2 ;
suitor = [ S1, S1, S2, S2, S3, S3 ];

mintime = [|  1, 2, 3
           |  2, 2, 1
           |  3, 3, 3 |];
 
maxtime = [| 2, 3, 4
           | 2, 4, 3
           | 5, 5, 3 |];

move = [|  0, 1, 1
        |  1, 0, 0
        |  1, 0, 0 |];
%move = [|  0, 0, 0
%        |  0, 0, 0
%        |  0, 0, 0 |];
 
ndays = 3;
earliest = 8;
latest = 18;

lessontime = 2;
minsep = 1;

usedstart = [ 10, 12, 15 ];
useddur   = [ 4, 2, 3 ];

